\ENCODING=ISO-8859-1
\Problem name: instances

Maximize
 obj:
Subject To
 c1: 72 x1 - 5 x2 + 15 x3 + 87 x4 + 97 x6 + 30 x7 + 58 x8 + 54 x9 + x10 <= 221
 c2: 60 x1 + 82 x2 + 14 x3 + 69 x4 + 21 x5 + 4 x6 + 46 x7 + 13 x8 + 98 x9
     + 73 x10 <= 169
 c3: 25 x1 + 31 x2 + 77 x3 + 68 x4 + 23 x5 - 64 x6 + 84 x7 + 85 x10 <= 197
 c4: 29 x1 + 86 x2 + 45 x3 + 36 x4 + 97 x5 - 40 x6 + 32 x7 - 79 x8 + 5 x10
     <= 189
 c5: 28 x1 + 99 x2 + 67 x3 + 40 x5 + 82 x6 + 28 x7 + 18 x8 - 30 x9 <= 188
Bounds
      x1 >= 0
      x2 >= 0
      x3 >= 0
      x4 >= 0
      x5 >= 0
      x6 >= 0
      x7 >= 0
      x8 >= 0
      x9 >= 0
      x10 >= 0
Generals
 x1  x2  x3  x4  x5  x6  x7  x8  x9  x10 
End
